20
587 233 220
76 74 50
86 40 29
66 55 48
75 57 37
102 83 29
74 58 52
89 65 36
99 68 67
80 78 66
65 57 45
112 59 30
79 75 68
97 48 30
73 70 31
90 83 44
101 93 64
89 82 78
85 54 26
57 34 29
78 71 68
thpack7_42